5

0   4   21   20   8
4   0   22   19   24
21   22   0   16   20
20   19   16   0   10
8   24   20   10   0

0   53   13   36   47
53   0   66   29   44
13   66   0   37   44
36   29   37   0   15
47   44   44   15   0